
Gurobi 9.1.2 (win64, Java) logging started Sat Nov 13 13:35:17 2021

Academic license - for non-commercial use only - expires 2022-10-30
Gurobi Optimizer version 9.1.2 build v9.1.2rc0 (win64)
Thread count: 6 physical cores, 12 logical processors, using up to 12 threads
Optimize a model with 30 rows, 200 columns and 400 nonzeros
Model fingerprint: 0xb5a2a413
Variable types: 0 continuous, 200 integer (200 binary)
Coefficient statistics:
  Matrix range     [1e+00, 1e+03]
  Objective range  [5e+02, 1e+03]
  Bounds range     [1e+00, 1e+00]
  RHS range        [1e+00, 1e+03]
Found heuristic solution: objective 8441.0000000
Presolve removed 5 rows and 104 columns
Presolve time: 0.00s
Presolved: 25 rows, 96 columns, 191 nonzeros
Variable types: 0 continuous, 96 integer (96 binary)
Presolve removed 0 rows and 1 columns
Presolved: 25 rows, 95 columns, 189 nonzeros


Root relaxation: objective 1.069427e+04, 95 iterations, 0.00 seconds

    Nodes    |    Current Node    |     Objective Bounds      |     Work
 Expl Unexpl |  Obj  Depth IntInf | Incumbent    BestBd   Gap | It/Node Time

     0     0 10694.2718    0   11 8441.00000 10694.2718  26.7%     -    0s
H    0     0                    9758.0000000 10694.2718  9.59%     -    0s
H    0     0                    9909.0000000 10694.2718  7.92%     -    0s
H    0     0                    9934.0000000 10694.2718  7.65%     -    0s
     0     0 10602.5519    0   25 9934.00000 10602.5519  6.73%     -    0s
H    0     0                    10425.000000 10602.5519  1.70%     -    0s
     0     0 10602.3520    0   19 10425.0000 10602.3520  1.70%     -    0s
     0     0 10602.3520    0   21 10425.0000 10602.3520  1.70%     -    0s
     0     0 10600.2880    0   30 10425.0000 10600.2880  1.68%     -    0s
H    0     0                    10557.000000 10600.2880  0.41%     -    0s
     0     0 10599.9305    0   19 10557.0000 10599.9305  0.41%     -    0s
     0     0 10599.6979    0   15 10557.0000 10599.6979  0.40%     -    0s
     0     0 10599.6889    0   17 10557.0000 10599.6889  0.40%     -    0s
     0     0 10598.4282    0   34 10557.0000 10598.4282  0.39%     -    0s
     0     0 10597.8215    0   29 10557.0000 10597.8215  0.39%     -    0s
     0     0 10597.7713    0   31 10557.0000 10597.7713  0.39%     -    0s
     0     0 10597.0694    0   34 10557.0000 10597.0694  0.38%     -    0s
     0     0 10597.0659    0   35 10557.0000 10597.0659  0.38%     -    0s
     0     0 10595.1654    0   37 10557.0000 10595.1654  0.36%     -    0s
     0     0 10594.3052    0   37 10557.0000 10594.3052  0.35%     -    0s
     0     0 10593.8427    0   38 10557.0000 10593.8427  0.35%     -    0s
     0     0 10593.8013    0   39 10557.0000 10593.8013  0.35%     -    0s
     0     0 10588.4018    0   37 10557.0000 10588.4018  0.30%     -    0s
     0     0 10588.1964    0   37 10557.0000 10588.1964  0.30%     -    0s
     0     0 10587.8931    0   38 10557.0000 10587.8931  0.29%     -    0s
     0     0 10587.8903    0   38 10557.0000 10587.8903  0.29%     -    0s
     0     0 10586.2986    0   35 10557.0000 10586.2986  0.28%     -    0s
     0     0 10585.8254    0   38 10557.0000 10585.8254  0.27%     -    0s
     0     0 10585.6672    0   40 10557.0000 10585.6672  0.27%     -    0s
     0     0 10585.3583    0   40 10557.0000 10585.3583  0.27%     -    0s
     0     0 10582.2827    0   33 10557.0000 10582.2827  0.24%     -    0s
     0     0 10582.1473    0   38 10557.0000 10582.1473  0.24%     -    0s
     0     0 10579.7027    0   40 10557.0000 10579.7027  0.22%     -    0s
     0     0 10579.3546    0   41 10557.0000 10579.3546  0.21%     -    0s
     0     0 10579.3202    0   42 10557.0000 10579.3202  0.21%     -    0s
     0     0 10578.0415    0   38 10557.0000 10578.0415  0.20%     -    0s
     0     0 10577.7866    0   39 10557.0000 10577.7866  0.20%     -    0s
     0     0 10577.7342    0   42 10557.0000 10577.7342  0.20%     -    0s
     0     0 10562.2922    0   26 10557.0000 10562.2922  0.05%     -    0s

Cutting planes:
  Gomory: 2
  Cover: 7
  Clique: 2
  MIR: 13
  StrongCG: 7
  Zero half: 1

Explored 1 nodes (514 simplex iterations) in 0.13 seconds
Thread count was 12 (of 12 available processors)

Solution count 6: 10557 10425 9934 ... 8441

Optimal solution found (tolerance 1.00e-12)
Best objective 1.055700000000e+04, best bound 1.055700000000e+04, gap 0.0000%
